(set-logic QF_FP)
(set-option :produce-models true)
(set-info :source |Random FP created by PyMPF|)
(set-info :category random)
(set-info :status sat)
(declare-const x Float32)
(assert (= x (fp #b0 #b11100000 #b00111110010110111011101)))
(declare-const y Float32)
(assert (= y (fp #b0 #b00000001 #b00000000000000000000000)))
(declare-const result Float32)
(assert (= result (fp.mul RNA x y)))
(assert (= result (fp #b0 #b01100010 #b00111110010110111011101)))
(check-sat)
(exit)
